\Generated by Cardinal Operations

Maximize
   10 x_1 + 2.5 x_2 + 0.9 x_4 + 4.5 x_5 + 1.3 x_6 + 1.05 x_7 + 0.6 x_8 
   + 1.5 x_9 + 0.5 x_10 + 1.1 x_11 + 1.5 x_12 + 1.6 x_13 + 5 x_14 + 6 x_15 
   + 0.8 x_16 + 2.5 x_17 + 14 x_18 + 21 x_19 + 28 x_20 + x_21 + 3 x_22 
   + 1.8 x_23 + 2.4 x_24 + 1.25 x_25 + 1.4 x_26 + 1.5 x_27 + 2 x_28 
   + 1.5 x_29 + x_30 + 0.15 x_31 + 1.1 x_32 + 1.4 x_33 + 2 x_34 + 6 x_35 
   + 3 x_36 + 0.45 x_37 + 0.6 x_38 + 2 x_39 + 2 x_40 + 3 x_41 + 2.5 x_43 
   + 4 x_44 + 3 x_45 + 2 x_46 + 2.1 x_47 + 3.5 x_48 + 0.6 x_49 + 0.7 x_50 
   + 3 x_51 + 2 x_52 + 2.1 x_53 + 2.5 x_54 + 6.5 x_55 + 8 x_56 + 6.5 x_57 
   + 3 x_58 + 3 x_59 + 5 x_60 + 8 x_61 + 12 x_62 + 8 x_63 + 12 x_64 
   + 8 x_65 + 12 x_66 + 16 x_67 + 7.5 x_69 + 11 x_70 + 18 x_71 + 7 x_72 
   + 0.6 x_73 + 3.5 x_74 + 2.1 x_75 + x_76 + x_77 + 2 x_78 + 2 x_79 
   + 2.5 x_80 + 2.5 x_81 + 2 x_82 + 1.5 x_83 + 1.15 x_84 + 1.2 x_85 
   + 1.4 x_86 + 1.4 x_87 + 1.5 x_88 + 2 x_89 + 2 x_90 + 0.6 x_91 + 1.5 x_92 
   + 1.6 x_93 + 1.5 x_94 + x_95 + 2 x_96 + 4.5 x_97 + 35 x_98 + 4.9 x_99 
   + 6.5 x_100 + 7 x_101 + 7.6 x_102 + 8.300000000000001 x_103 + 5.5 x_104 
   + 6 x_105 + 7 x_107 + 3 x_108 + 10 x_109 + x_110 + 10 x_111 + 15 x_112 
   + 2.5 x_113 + 3 x_114 + 12 x_115 + 18 x_116 + 1.6 x_117 + 1.6 x_118 
   + 4 x_119 + 4 x_120 + 3 x_121 + 3.5 x_122 + 4.5 x_123 + 2 x_124 
   + 1.8 x_125 + 2.4 x_126 + 4.8 x_127 + 3 x_128 + 0.3 x_129 + 7 x_130 
   + 12 x_131 + 18 x_132 + 9 x_133 + 12 x_134 + 2 x_135 + 2.5 x_136 
   + 3 x_137 + 3 x_138 + 1.5 x_139 + 1.2 x_140 + 1.5 x_141 + 2.5 x_142 
   + 3 x_143 + 2 x_144 + 2.1 x_145 + 3.5 x_146 + 1.1 x_147 + 2.5 x_148 
Subject To
 inventory_constraint: x_1 <= 650
 x_2 <= 20
 x_3 <= 10
 x_4 <= 160220
 x_5 <= 660
 x_6 <= 15040
 x_7 <= 157590
 x_8 <= 28230
 x_9 <= 14830
 x_10 <= 1500
 x_11 <= 26990
 x_12 <= 41370
 x_13 <= 5020
 x_14 <= 16490
 x_15 <= 190
 x_16 <= 510
 x_17 <= 370
 x_18 <= 100
 x_19 <= 80
 x_20 <= 10
 x_21 <= 14440
 x_22 <= 10
 x_23 <= 39270
 x_24 <= 730
 x_25 <= 51980
 x_26 <= 14580
 x_27 <= 730
 x_28 <= 2080
 x_29 <= 31600
 x_30 <= 22350
 x_31 <= 205960
 x_32 <= 146220
 x_33 <= 18250
 x_34 <= 70
 x_35 <= 10
 x_36 <= 430
 x_37 <= 11430
 x_38 <= 1630
 x_39 <= 840
 x_40 <= 3120
 x_41 <= 4830
 x_42 <= 5030
 x_43 <= 2350
 x_44 <= 8200
 x_45 <= 10
 x_46 <= 22000
 x_47 <= 160
 x_48 <= 240
 x_49 <= 26790
 x_50 <= 170
 x_51 <= 10260
 x_52 <= 8330
 x_53 <= 5790
 x_54 <= 2210
 x_55 <= 20
 x_56 <= 100
 x_57 <= 42080
 x_58 <= 3850
 x_59 <= 680
 x_60 <= 1270
 x_61 <= 2020
 x_62 <= 1230
 x_63 <= 240
 x_64 <= 150
 x_65 <= 970
 x_66 <= 610
 x_67 <= 20
 x_68 <= 1580
 x_69 <= 8310
 x_70 <= 910
 x_71 <= 20
 x_72 <= 13720
 x_73 <= 2080
 x_74 <= 30
 x_75 <= 14690
 x_76 <= 1940
 x_77 <= 510
 x_78 <= 7760
 x_79 <= 30980
 x_80 <= 4060
 x_81 <= 160
 x_82 <= 3380
 x_83 <= 1050
 x_84 <= 19580
 x_85 <= 128860
 x_86 <= 20130
 x_87 <= 27310
 x_88 <= 14880
 x_89 <= 320
 x_90 <= 30
 x_91 <= 10
 x_92 <= 1250
 x_93 <= 180
 x_94 <= 1690
 x_95 <= 50
 x_96 <= 9330
 x_97 <= 20
 x_98 <= 10
 x_99 <= 80
 x_100 <= 10
 x_101 <= 920
 x_102 <= 2440
 x_103 <= 1150
 x_104 <= 30
 x_105 <= 10
 x_106 <= 60
 x_107 <= 120
 x_108 <= 5040
 x_109 <= 30
 x_110 <= 13900
 x_111 <= 80
 x_112 <= 10
 x_113 <= 850
 x_114 <= 1850
 x_115 <= 630
 x_116 <= 620
 x_117 <= 820
 x_118 <= 1100
 x_119 <= 10
 x_120 <= 4940
 x_121 <= 50
 x_122 <= 15050
 x_123 <= 22300
 x_124 <= 3410
 x_125 <= 13350
 x_126 <= 51810
 x_127 <= 4550
 x_128 <= 850
 x_129 <= 6000
 x_130 <= 600
 x_131 <= 1480
 x_132 <= 1220
 x_133 <= 3550
 x_134 <= 2720
 x_135 <= 30770
 x_136 <= 520
 x_137 <= 10
 x_138 <= 5190
 x_139 <= 60
 x_140 <= 725350
 x_141 <= 13020
 x_142 <= 660
 x_143 <= 10
 x_144 <= 3650
 x_145 <= 260
 x_146 <= 20
 x_147 <= 1840
 x_148 <= 31640
 demand_constraint: x_1 <= 135
 x_2 <= 5
 x_3 <= 2
 x_4 <= 38573
 x_5 <= 128
 x_6 <= 3390
 x_7 <= 38972
 x_8 <= 5930
 x_9 <= 3376
 x_10 <= 570
 x_11 <= 5823
 x_12 <= 9011
 x_13 <= 1034
 x_14 <= 3351
 x_15 <= 38
 x_16 <= 143
 x_17 <= 82
 x_18 <= 21
 x_19 <= 16
 x_20 <= 3
 x_21 <= 3425
 x_22 <= 2
 x_23 <= 8314
 x_24 <= 174
 x_25 <= 12788
 x_26 <= 3413
 x_27 <= 155
 x_28 <= 482
 x_29 <= 6722
 x_30 <= 6136
 x_31 <= 44306
 x_32 <= 45491
 x_33 <= 4196
 x_34 <= 17
 x_35 <= 5
 x_36 <= 105
 x_37 <= 2289
 x_38 <= 326
 x_39 <= 170
 x_40 <= 631
 x_41 <= 989
 x_42 <= 1042
 x_43 <= 468
 x_44 <= 1653
 x_45 <= 2
 x_46 <= 5929
 x_47 <= 38
 x_48 <= 62
 x_49 <= 6121
 x_50 <= 36
 x_51 <= 2303
 x_52 <= 1922
 x_53 <= 1377
 x_54 <= 549
 x_55 <= 4
 x_56 <= 21
 x_57 <= 9445
 x_58 <= 998
 x_59 <= 178
 x_60 <= 256
 x_61 <= 415
 x_62 <= 251
 x_63 <= 48
 x_64 <= 30
 x_65 <= 196
 x_66 <= 123
 x_67 <= 4
 x_68 <= 331
 x_69 <= 1850
 x_70 <= 201
 x_71 <= 4
 x_72 <= 2862
 x_73 <= 564
 x_74 <= 6
 x_75 <= 3922
 x_76 <= 665
 x_77 <= 116
 x_78 <= 1839
 x_79 <= 6466
 x_80 <= 1006
 x_81 <= 53
 x_82 <= 793
 x_83 <= 238
 x_84 <= 4454
 x_85 <= 39146
 x_86 <= 4766
 x_87 <= 5758
 x_88 <= 3412
 x_89 <= 72
 x_90 <= 6
 x_91 <= 2
 x_92 <= 265
 x_93 <= 39
 x_94 <= 439
 x_95 <= 11
 x_96 <= 2227
 x_97 <= 4
 x_98 <= 3
 x_99 <= 17
 x_100 <= 1
 x_101 <= 202
 x_102 <= 567
 x_103 <= 263
 x_104 <= 6
 x_105 <= 2
 x_106 <= 14
 x_107 <= 30
 x_108 <= 1274
 x_109 <= 7
 x_110 <= 3623
 x_111 <= 16
 x_112 <= 2
 x_113 <= 205
 x_114 <= 478
 x_115 <= 140
 x_116 <= 128
 x_117 <= 215
 x_118 <= 232
 x_119 <= 2
 x_120 <= 1003
 x_121 <= 10
 x_122 <= 3305
 x_123 <= 5172
 x_124 <= 815
 x_125 <= 2761
 x_126 <= 10647
 x_127 <= 912
 x_128 <= 197
 x_129 <= 1701
 x_130 <= 125
 x_131 <= 314
 x_132 <= 242
 x_133 <= 736
 x_134 <= 555
 x_135 <= 8218
 x_136 <= 112
 x_137 <= 3
 x_138 <= 1346
 x_139 <= 13
 x_140 <= 193745
 x_141 <= 2765
 x_142 <= 147
 x_143 <= 2
 x_144 <= 881
 x_145 <= 59
 x_146 <= 4
 x_147 <= 404
 x_148 <= 6810
Generals
 x_1  x_2  x_3  x_4  x_5  x_6  x_7  x_8  x_9  x_10  x_11  x_12  x_13  x_14  
 x_15  x_16  x_17  x_18  x_19  x_20  x_21  x_22  x_23  x_24  x_25  x_26  
 x_27  x_28  x_29  x_30  x_31  x_32  x_33  x_34  x_35  x_36  x_37  x_38  
 x_39  x_40  x_41  x_42  x_43  x_44  x_45  x_46  x_47  x_48  x_49  x_50  
 x_51  x_52  x_53  x_54  x_55  x_56  x_57  x_58  x_59  x_60  x_61  x_62  
 x_63  x_64  x_65  x_66  x_67  x_68  x_69  x_70  x_71  x_72  x_73  x_74  
 x_75  x_76  x_77  x_78  x_79  x_80  x_81  x_82  x_83  x_84  x_85  x_86  
 x_87  x_88  x_89  x_90  x_91  x_92  x_93  x_94  x_95  x_96  x_97  x_98  
 x_99  x_100  x_101  x_102  x_103  x_104  x_105  x_106  x_107  x_108  
 x_109  x_110  x_111  x_112  x_113  x_114  x_115  x_116  x_117  x_118  
 x_119  x_120  x_121  x_122  x_123  x_124  x_125  x_126  x_127  x_128  
 x_129  x_130  x_131  x_132  x_133  x_134  x_135  x_136  x_137  x_138  
 x_139  x_140  x_141  x_142  x_143  x_144  x_145  x_146  x_147  x_148  
END

